NAME : pr2392.46778840_466875882.tour
COMMENT : Cost = 46778840_466875882
COMMENT : Found by LKH-3 [Keld Helsgaun] Tue Mar 15 14:35:24 2022
TYPE : TOUR
DIMENSION : 2401
TOUR_SECTION
1
1306
1305
1314
1334
1335
1418
1420
1428
1427
1433
1434
1435
1030
1029
1027
1026
1025
1024
1023
1022
1021
1020
1019
1018
1077
1078
1003
1004
1005
1006
1007
1008
894
895
896
817
816
815
814
813
804
805
796
795
932
942
943
944
474
475
476
477
478
479
483
484
485
486
487
488
489
490
491
492
493
494
495
496
497
498
499
500
501
502
503
504
528
529
527
530
531
526
525
532
533
534
535
536
537
538
539
540
541
542
543
544
545
546
547
548
524
523
505
506
507
508
509
510
511
522
521
520
519
518
517
516
515
514
513
512
581
582
583
580
579
578
577
576
607
606
605
604
603
602
601
600
599
596
595
597
598
590
589
585
584
586
588
587
591
592
593
594
938
939
940
941
933
792
793
794
807
806
808
809
812
811
810
818
819
820
891
892
893
1009
1010
1013
1014
1015
1016
1017
1555
1554
1553
1454
1453
1452
1451
1446
1445
1461
1500
1504
1505
1329
2306
2308
2312
1310
1309
2395
2287
2292
2294
2293
2268
2267
1508
1509
1510
1511
1502
1498
1491
1492
1493
1485
1482
1481
1479
1540
1541
1542
1543
1544
1545
1546
1556
1012
1011
890
889
825
826
829
830
836
835
834
839
840
767
768
766
765
764
763
762
761
760
759
758
757
756
755
754
748
747
745
739
736
735
734
733
732
729
728
727
726
725
724
723
722
617
616
615
614
613
612
611
609
608
610
575
574
573
572
571
570
569
568
567
566
565
564
549
550
551
552
553
554
555
556
557
563
558
559
562
560
561
618
619
620
621
622
623
625
624
721
720
719
718
627
626
628
629
630
631
632
633
634
638
639
641
642
640
637
635
636
697
696
695
694
693
692
691
690
684
683
685
686
689
688
687
658
659
660
661
662
663
664
665
666
667
668
847
848
849
850
1702
1701
1700
1699
1698
863
862
864
865
867
1683
1682
1681
1576
1575
1574
1573
1572
1571
1535
1534
1533
1532
1531
1530
1529
1528
1527
1526
1525
1524
1523
1522
1521
1520
1519
2256
2257
2258
2264
2263
2270
2274
2291
2288
2289
2286
2334
2396
2
2377
2376
2374
2336
2335
2343
2285
2284
2290
2271
2262
2261
2259
2255
2228
2227
2229
2226
2225
2230
2231
2224
2223
2222
2221
2220
2219
2218
2217
2216
2215
1585
1584
1583
1582
1581
1580
1579
1578
1577
1680
1679
1678
1675
1676
1677
1684
1685
1686
1687
1688
1691
1692
1693
1694
1712
1713
1714
1717
1715
1716
1741
1742
1743
1744
1751
1752
1753
657
656
655
654
653
652
651
650
649
648
647
646
643
644
645
1794
1795
1793
1792
1791
1790
1789
1788
1787
1786
1785
1784
1783
1782
1781
1780
1779
1778
1777
1801
1800
1799
1798
1797
1796
1803
1802
1804
1805
1806
1807
1808
1809
1810
1811
1816
1817
1818
1819
1820
1821
1822
1823
1824
1826
1825
1765
1764
1766
1767
1768
1769
1770
1771
1772
1773
1774
1775
1776
1758
1759
1763
1762
1761
1760
1757
1756
1755
1754
1750
1749
1748
1747
1745
1746
1740
1739
1738
1737
1736
1735
1734
1733
1732
1731
1730
1729
1728
1727
1726
1725
1718
1719
1720
1721
1724
1723
1722
1666
1667
1668
1671
1672
1673
1674
1635
1634
1633
1632
1631
1630
1629
1628
1627
1626
1625
1624
1623
1591
1590
1589
1588
1587
1586
2214
2213
2212
2211
2210
2209
2208
2232
2237
2236
2235
2234
2233
2251
2250
2246
2247
2248
2249
2252
2253
2254
2260
2272
2273
2279
2280
2283
2344
2342
2341
2338
2337
2375
2378
2401
4
2328
1303
1304
1302
1315
1316
1317
1318
1320
1319
1340
1341
1342
1404
1405
1407
1400
1399
1396
1397
1398
1423
1424
1043
1042
1041
1040
1048
1049
1050
1051
1052
1053
1054
1055
1056
1057
1126
1125
1127
1128
1129
1130
1132
1133
1131
1135
1134
1110
1109
1111
1108
1107
1112
1113
1106
1105
1104
1103
1102
1101
1100
1099
1098
1097
1096
987
986
985
984
983
982
981
980
979
978
977
976
975
974
973
972
971
970
969
968
967
966
965
964
963
962
961
421
420
419
418
417
416
415
414
413
412
411
410
409
408
407
406
405
404
403
402
401
400
399
300
299
298
297
296
295
294
293
290
289
288
287
286
285
284
309
310
311
312
308
307
291
292
305
304
303
302
301
398
397
396
395
394
393
392
391
390
389
388
387
386
385
384
383
382
381
380
379
378
377
376
375
374
373
372
371
370
369
368
367
366
365
1138
1139
1140
1141
1137
1136
1142
1143
1144
1146
1145
1151
1152
1153
1155
1154
1047
1046
1045
1044
1238
1237
1236
1235
1239
1240
1241
1242
1243
1385
1386
1387
1388
1389
1390
1391
1392
1393
1394
1395
1402
1401
1406
1403
1343
1344
1345
1346
1347
1348
1349
1350
1351
1291
1301
1300
16
5
2399
8
12
21
20
31
32
1283
1282
1281
1279
1278
1277
1276
1275
1274
1273
1272
1271
1270
1269
1268
1267
1266
1265
1264
1263
1262
1261
1260
1259
1258
1257
1256
1218
1217
1216
1213
1212
1211
1210
1209
1208
1215
1214
1207
1206
1205
1204
1203
1202
1201
1200
1199
1198
1197
1196
1195
1194
1191
1192
1193
159
160
158
157
156
155
154
153
152
151
150
149
148
147
146
145
144
143
142
141
140
139
138
137
136
135
134
133
132
131
130
129
128
127
126
125
124
221
220
219
218
217
210
211
212
209
208
207
206
205
204
203
202
201
200
195
196
199
198
197
162
161
163
164
165
166
167
168
170
171
172
173
174
175
179
178
177
176
353
352
351
350
349
348
347
346
345
344
343
342
341
340
314
313
315
316
317
306
319
318
320
321
322
323
324
325
326
327
328
329
330
331
332
338
339
337
336
333
334
335
364
363
362
361
360
359
358
357
356
355
354
1147
1148
1149
1150
1175
1156
1157
1158
1159
1160
1161
1162
1163
1165
1164
1232
1233
1234
1230
1231
1226
1227
1228
1229
1245
1246
1244
1384
1383
1382
1381
1369
1370
1368
1367
1366
1365
1364
1363
1371
1372
1373
1362
1361
1360
1359
1358
1357
1356
1355
1354
1353
1352
1287
1288
1289
1290
1292
1299
1298
1297
17
15
6
2397
2368
2352
2162
2164
2166
2168
2170
2176
2177
2184
2185
2186
2187
2188
2189
2190
2191
2192
2199
2198
2197
1601
1602
1603
1604
1605
1606
1609
1610
1611
2070
2071
2072
2075
2076
2077
2078
2079
2082
2083
2084
2023
2022
2027
2024
2025
2026
2029
2028
2021
2020
2019
2018
2017
2016
2015
2014
2013
2012
2011
2010
2009
2008
2007
2006
2005
2004
2003
2002
2001
2000
1999
1998
1992
1993
1997
1995
1994
1996
1853
1854
1855
1856
1857
1858
1859
1860
1861
1862
1863
1829
1828
1827
1830
1831
1832
1833
1834
1835
1836
1837
1838
1839
1840
1841
1842
1843
1851
1852
1849
1848
1850
1844
1845
1846
1847
1653
1654
1655
1656
1652
1651
1650
1649
1648
1647
1645
1646
1662
1661
1657
1658
1659
1660
1665
1664
1663
1669
1670
1636
1637
1638
1639
1640
1641
1642
1643
1644
2051
2052
2050
2049
2048
2047
2046
2045
2044
2043
2042
2041
2040
2039
2038
2037
2033
2032
2031
2030
2034
2035
2036
2060
2059
2061
2062
2063
2064
2065
2058
2057
2066
2067
2068
2069
2055
2056
2053
2054
1613
1612
1614
1615
1616
1617
1618
1619
1620
1621
1622
1592
1593
1594
1595
1596
1597
1598
1599
1600
2200
2201
2202
2203
2204
2205
2206
2207
2238
2239
2240
2241
2242
2243
2245
2244
2175
2174
2173
2172
2169
2165
2163
2351
2348
2347
2380
2387
2398
9
10
11
22
23
24
25
26
27
28
29
30
33
34
35
36
37
38
39
40
41
42
43
44
45
46
47
48
49
50
51
52
53
54
55
56
57
58
59
60
61
62
63
64
65
66
67
68
69
70
71
72
73
74
75
76
77
78
79
80
81
82
83
84
85
86
87
88
89
90
91
92
93
94
95
96
97
98
99
100
101
102
103
104
105
106
107
108
109
110
111
112
113
114
115
116
117
118
119
120
121
122
123
222
223
224
225
226
227
228
215
216
214
213
240
241
242
245
243
244
236
237
238
239
229
230
231
232
233
234
235
269
270
271
272
279
281
280
278
282
283
277
276
275
273
274
268
267
266
265
264
263
262
261
260
259
258
257
256
254
247
246
249
250
251
248
253
252
255
182
183
181
180
184
187
188
189
190
191
194
193
192
186
185
169
1189
1190
1188
1187
1186
1185
1184
1183
1182
1181
1180
1179
1178
1177
1176
1174
1173
1170
1169
1168
1171
1172
1166
1167
1225
1224
1223
1222
1221
1220
1219
1255
1254
1253
1252
1251
1250
1249
1248
1247
1380
1379
1378
1377
1376
1375
1374
1280
1285
1284
1286
1293
1294
1295
1296
19
18
14
13
7
2400
3
2329
2326
2325
2324
2323
2322
2321
2320
2311
2310
2309
2307
1324
1325
1326
1333
1332
1331
1330
1503
1501
1499
1497
1496
1495
1494
1468
1469
1477
1478
1476
1475
1474
1473
1472
1471
1470
1467
1466
1465
1464
1463
1462
1460
1459
1458
1457
1456
1455
1552
1551
1550
1549
1548
1547
1557
1558
1559
1560
1561
880
881
882
883
884
885
886
887
888
824
823
821
822
827
828
831
832
833
770
769
775
774
771
772
773
776
777
778
779
780
781
782
783
784
785
786
787
788
789
790
791
934
935
936
937
752
753
751
750
749
746
744
743
742
741
740
738
737
713
712
711
710
714
715
731
730
717
716
705
706
704
703
702
701
700
698
699
707
709
708
682
681
680
679
678
677
676
675
674
673
672
671
670
669
846
845
844
843
841
842
838
837
853
857
858
860
861
859
856
855
854
852
851
1703
1704
1705
1706
1707
1708
1709
1710
1711
1695
1697
1696
1690
1689
866
868
869
870
871
872
873
874
875
876
877
878
879
1562
1563
1564
1565
1566
1567
1568
1569
1570
1537
1536
1538
1539
1480
1483
1484
1486
1487
1490
1488
1489
1518
1517
1516
1515
1514
1513
1512
2265
2266
2269
2275
2276
2277
2278
2281
2282
2350
2349
2345
2346
2340
2339
2373
2372
2379
2393
2330
2331
2333
2332
2316
2317
2318
2319
2313
2314
2315
2297
2296
2295
2298
2299
2300
2301
2302
2303
2305
2304
1327
1328
1507
1506
1419
1429
1430
1431
1432
1436
1437
1438
1439
1440
1441
1442
1443
1444
1447
1448
1449
1450
1028
1063
1064
1065
1067
1068
1070
1071
1072
1073
1074
1075
1076
1079
1080
1081
1082
1083
1084
1085
1002
1001
1000
999
998
997
996
995
994
907
906
905
904
903
902
901
900
899
897
898
801
802
803
800
799
797
798
924
923
925
926
927
928
929
930
931
947
946
945
950
949
948
954
955
956
953
952
951
469
470
473
472
471
468
467
466
465
480
481
482
463
462
464
461
460
459
458
457
456
455
454
453
452
451
450
449
448
447
446
445
444
443
442
441
440
439
438
437
436
435
434
433
432
431
430
429
428
427
426
425
424
423
422
960
959
958
957
921
920
919
922
916
918
917
915
914
913
912
911
910
909
908
993
992
991
990
989
988
1086
1087
1089
1088
1095
1094
1093
1092
1091
1090
1114
1115
1116
1117
1118
1119
1120
1121
1122
1123
1124
1069
1066
1058
1059
1060
1061
1062
1031
1032
1033
1034
1035
1036
1037
1038
1039
1426
1425
1422
1421
1417
1416
1415
1414
1413
1412
1411
1410
1408
1409
1336
1337
1338
1339
1323
1322
1321
1313
1312
1311
1308
1307
2327
2394
2386
2385
2384
2383
2382
2381
2370
2365
2364
2362
2361
2360
2359
2358
2357
2161
2160
2157
2156
2155
2154
2153
2152
2151
2149
2150
2148
2147
2146
2145
2144
2143
2142
2141
2140
2139
2138
2137
2136
2135
2134
2133
2132
2131
2130
2129
2128
2127
2126
2125
2124
2123
2122
2121
2120
2119
2118
2117
2116
2113
2112
2111
2110
2109
2108
2107
2106
2105
2104
2103
2102
2101
2100
2099
2098
1921
1920
1919
1918
1917
1916
1915
1914
1913
1912
1911
1910
1909
1908
1907
1906
1905
1904
1903
1902
1901
1900
1899
1898
1897
1896
1895
1894
1893
1892
1891
1887
1890
1888
1889
1950
1949
1948
1951
1952
1953
1954
1955
1956
1957
1959
1958
1969
1970
1971
1972
1973
1974
1977
1978
1979
1976
1975
1877
1878
1879
1880
1881
1886
1885
1884
1883
1882
1875
1876
1874
1873
1872
1871
1813
1812
1815
1814
1870
1869
1868
1867
1866
1865
1864
1980
1981
1982
1983
1984
1985
1986
1987
1988
1989
1990
1991
1966
1968
1967
1965
1964
1963
1962
1961
1960
1947
1946
1945
1944
1943
1942
1941
1940
1939
1938
1937
1936
1935
1934
1933
1932
1931
1930
1929
1928
1927
1926
1925
1924
1923
1922
2097
2096
2095
2094
2093
2092
2091
2090
2089
2088
2086
2085
2087
2081
2080
2114
2115
2074
2073
1608
1607
2196
2195
2194
2193
2183
2182
2181
2180
2179
2178
2171
2167
2158
2159
2356
2355
2354
2353
2363
2367
2366
2369
2371
2388
2389
2390
2391
2392
-1
EOF
